num_nodes = 29;
num_types = 3;
num_adders = 12; 
num_mults = 16;
dependencies = [|1,1|
1,1|1,1|1,1|1,1|1,1|1,1|1,1|1,1| % up to index 7
2,3|4,5|6,7|8,9|11,1|12,1|14,1|15,1| % up to index 15
14,1|15,1|16,17|18,19|20,1|21,1|20,1| 21,1| %up to index 23
22,23|24,25|26,10|13,27|];


% 1 = free, 2 = add, 3 = mul
types = [1, 3, 3, 3, 3, 3, 3, 3, 3, %up to index 7
2, 2, 2, 2, 2, 2, 3, 3, 3, 3, 2, 2, %up to index 19
3, 3, 3, 3, 2, 2, 2, 2];


cycles = [0,
1,1];

resources = [1,
2,4];
